NAME : X_18_seed_123_id_5
TYPE : CVRP
DIMENSION : 181
EDGE_WEIGHT_TYPE : EUC_2D
CAPACITY : 8
NODE_COORD_SECTION
1	25	210
2	574	600
3	359	661
4	829	70
5	65	934
6	798	572
7	220	42
8	208	89
9	238	51
10	325	87
11	546	612
12	607	652
13	163	882
14	824	30
15	596	616
16	70	72
17	353	621
18	486	433
19	861	25
20	637	553
21	768	65
22	669	555
23	835	26
24	217	701
25	577	765
26	318	668
27	322	642
28	737	475
29	843	67
30	232	663
31	50	808
32	10	904
33	120	920
34	813	529
35	311	139
36	462	567
37	205	6
38	309	583
39	121	887
40	76	845
41	202	15
42	811	577
43	851	173
44	561	671
45	265	22
46	519	578
47	152	905
48	591	667
49	567	747
50	774	627
51	113	984
52	587	598
53	417	638
54	816	72
55	834	565
56	513	486
57	244	41
58	570	593
59	814	608
60	549	573
61	862	56
62	206	113
63	814	522
64	540	610
65	324	700
66	850	578
67	166	898
68	211	625
69	597	701
70	146	806
71	521	610
72	62	931
73	20	949
74	322	520
75	340	642
76	531	598
77	375	643
78	534	575
79	854	41
80	413	689
81	332	693
82	531	652
83	588	614
84	218	71
85	90	771
86	220	903
87	225	44
88	447	686
89	807	596
90	934	611
91	590	669
92	394	554
93	783	603
94	788	568
95	87	106
96	752	635
97	820	167
98	788	65
99	51	920
100	42	997
101	594	551
102	460	523
103	710	584
104	776	572
105	62	982
106	828	63
107	875	71
108	51	955
109	791	617
110	895	33
111	842	59
112	626	643
113	287	656
114	908	35
115	838	57
116	291	641
117	199	9
118	200	54
119	2	898
120	586	597
121	470	574
122	119	988
123	831	526
124	680	677
125	544	513
126	931	581
127	790	528
128	638	576
129	635	668
130	669	406
131	441	715
132	245	3
133	353	644
134	174	4
135	803	82
136	913	652
137	366	665
138	225	61
139	50	938
140	243	44
141	831	133
142	561	653
143	532	603
144	41	971
145	832	57
146	325	51
147	794	554
148	815	579
149	842	107
150	631	574
151	595	630
152	151	123
153	246	31
154	911	170
155	256	23
156	272	644
157	843	99
158	220	684
159	940	721
160	756	583
161	638	638
162	665	680
163	740	567
164	88	876
165	272	3
166	281	77
167	739	529
168	396	624
169	788	4
170	452	655
171	506	555
172	542	655
173	72	965
174	581	565
175	828	569
176	622	547
177	262	605
178	539	625
179	113	951
180	766	605
181	571	622
DEMAND_SECTION
1	0
2	1
3	1
4	1
5	1
6	1
7	1
8	1
9	1
10	1
11	1
12	1
13	1
14	1
15	1
16	1
17	1
18	1
19	1
20	1
21	1
22	1
23	1
24	1
25	1
26	1
27	1
28	1
29	1
30	1
31	1
32	1
33	1
34	1
35	1
36	1
37	1
38	1
39	1
40	1
41	1
42	1
43	1
44	1
45	1
46	1
47	1
48	1
49	1
50	1
51	1
52	1
53	1
54	1
55	1
56	1
57	1
58	1
59	1
60	1
61	1
62	1
63	1
64	1
65	1
66	1
67	1
68	1
69	1
70	1
71	1
72	1
73	1
74	1
75	1
76	1
77	1
78	1
79	1
80	1
81	1
82	1
83	1
84	1
85	1
86	1
87	1
88	1
89	1
90	1
91	1
92	1
93	1
94	1
95	1
96	1
97	1
98	1
99	1
100	1
101	1
102	1
103	1
104	1
105	1
106	1
107	1
108	1
109	1
110	1
111	1
112	1
113	1
114	1
115	1
116	1
117	1
118	1
119	1
120	1
121	1
122	1
123	1
124	1
125	1
126	1
127	1
128	1
129	1
130	1
131	1
132	1
133	1
134	1
135	1
136	1
137	1
138	1
139	1
140	1
141	1
142	1
143	1
144	1
145	1
146	1
147	1
148	1
149	1
150	1
151	1
152	1
153	1
154	1
155	1
156	1
157	1
158	1
159	1
160	1
161	1
162	1
163	1
164	1
165	1
166	1
167	1
168	1
169	1
170	1
171	1
172	1
173	1
174	1
175	1
176	1
177	1
178	1
179	1
180	1
181	1
DEPOT_SECTION
1
-1
EOF
